c n orig vars 168
p cnf 170 1417
1 2 -169 0
3 4 -169 0
5 6 -169 0
7 8 -169 0
9 10 -169 0
11 12 -169 0
13 14 -169 0
15 16 -169 0
17 18 -169 0
19 20 -169 0
21 22 -169 0
23 24 -169 0
25 26 -169 0
27 28 -169 0
29 30 -169 0
31 32 -169 0
33 34 -169 0
35 36 -169 0
-37 -48 -170 0
-38 -59 -170 0
-39 -70 -170 0
-40 -81 -170 0
-41 -92 -170 0
-42 -103 -170 0
-43 -114 -170 0
-44 -125 -170 0
-45 -136 -170 0
-46 -147 -170 0
-47 -158 -170 0
-49 -60 -170 0
-50 -71 -170 0
-51 -82 -170 0
-52 -93 -170 0
-53 -104 -170 0
-54 -115 -170 0
-55 -126 -170 0
-56 -137 -170 0
-57 -148 -170 0
-58 -159 -170 0
-61 -72 -170 0
-62 -83 -170 0
-63 -94 -170 0
-64 -105 -170 0
-65 -116 -170 0
-66 -127 -170 0
-67 -138 -170 0
-68 -149 -170 0
-69 -160 -170 0
-73 -84 -170 0
-74 -95 -170 0
-75 -106 -170 0
-76 -117 -170 0
-77 -128 -170 0
-78 -139 -170 0
-79 -150 -170 0
-80 -161 -170 0
-85 -96 -170 0
-86 -107 -170 0
-87 -118 -170 0
-88 -129 -170 0
-89 -140 -170 0
-90 -151 -170 0
-91 -162 -170 0
-97 -108 -170 0
-98 -119 -170 0
-99 -130 -170 0
-100 -141 -170 0
-101 -152 -170 0
-102 -163 -170 0
-109 -120 -170 0
-110 -131 -170 0
-111 -142 -170 0
-112 -153 -170 0
-113 -164 -170 0
-121 -132 -170 0
-122 -143 -170 0
-123 -154 -170 0
-124 -165 -170 0
-133 -144 -170 0
-134 -155 -170 0
-135 -166 -170 0
-145 -156 -170 0
-146 -167 -170 0
-157 -168 -170 0
-37 -49 38 -170 0
-37 -50 39 -170 0
-37 -51 40 -170 0
-37 -52 41 -170 0
-37 -53 42 -170 0
-37 -54 43 -170 0
-37 -55 44 -170 0
-37 -56 45 -170 0
-37 -57 46 -170 0
-37 -58 47 -170 0
-38 -60 37 -170 0
-38 -61 39 -170 0
-38 -62 40 -170 0
-38 -63 41 -170 0
-38 -64 42 -170 0
-38 -65 43 -170 0
-38 -66 44 -170 0
-38 -67 45 -170 0
-38 -68 46 -170 0
-38 -69 47 -170 0
-39 -71 37 -170 0
-39 -72 38 -170 0
-39 -73 40 -170 0
-39 -74 41 -170 0
-39 -75 42 -170 0
-39 -76 43 -170 0
-39 -77 44 -170 0
-39 -78 45 -170 0
-39 -79 46 -170 0
-39 -80 47 -170 0
-40 -82 37 -170 0
-40 -83 38 -170 0
-40 -84 39 -170 0
-40 -85 41 -170 0
-40 -86 42 -170 0
-40 -87 43 -170 0
-40 -88 44 -170 0
-40 -89 45 -170 0
-40 -90 46 -170 0
-40 -91 47 -170 0
-41 -93 37 -170 0
-41 -94 38 -170 0
-41 -95 39 -170 0
-41 -96 40 -170 0
-41 -97 42 -170 0
-41 -98 43 -170 0
-41 -99 44 -170 0
-41 -100 45 -170 0
-41 -101 46 -170 0
-41 -102 47 -170 0
-42 -104 37 -170 0
-42 -105 38 -170 0
-42 -106 39 -170 0
-42 -107 40 -170 0
-42 -108 41 -170 0
-42 -109 43 -170 0
-42 -110 44 -170 0
-42 -111 45 -170 0
-42 -112 46 -170 0
-42 -113 47 -170 0
-43 -115 37 -170 0
-43 -116 38 -170 0
-43 -117 39 -170 0
-43 -118 40 -170 0
-43 -119 41 -170 0
-43 -120 42 -170 0
-43 -121 44 -170 0
-43 -122 45 -170 0
-43 -123 46 -170 0
-43 -124 47 -170 0
-44 -126 37 -170 0
-44 -127 38 -170 0
-44 -128 39 -170 0
-44 -129 40 -170 0
-44 -130 41 -170 0
-44 -131 42 -170 0
-44 -132 43 -170 0
-44 -133 45 -170 0
-44 -134 46 -170 0
-44 -135 47 -170 0
-45 -137 37 -170 0
-45 -138 38 -170 0
-45 -139 39 -170 0
-45 -140 40 -170 0
-45 -141 41 -170 0
-45 -142 42 -170 0
-45 -143 43 -170 0
-45 -144 44 -170 0
-45 -145 46 -170 0
-45 -146 47 -170 0
-46 -148 37 -170 0
-46 -149 38 -170 0
-46 -150 39 -170 0
-46 -151 40 -170 0
-46 -152 41 -170 0
-46 -153 42 -170 0
-46 -154 43 -170 0
-46 -155 44 -170 0
-46 -156 45 -170 0
-46 -157 47 -170 0
-47 -159 37 -170 0
-47 -160 38 -170 0
-47 -161 39 -170 0
-47 -162 40 -170 0
-47 -163 41 -170 0
-47 -164 42 -170 0
-47 -165 43 -170 0
-47 -166 44 -170 0
-47 -167 45 -170 0
-47 -168 46 -170 0
-48 -38 49 -170 0
-48 -39 50 -170 0
-48 -40 51 -170 0
-48 -41 52 -170 0
-48 -42 53 -170 0
-48 -43 54 -170 0
-48 -44 55 -170 0
-48 -45 56 -170 0
-48 -46 57 -170 0
-48 -47 58 -170 0
-49 -59 48 -170 0
-49 -61 50 -170 0
-49 -62 51 -170 0
-49 -63 52 -170 0
-49 -64 53 -170 0
-49 -65 54 -170 0
-49 -66 55 -170 0
-49 -67 56 -170 0
-49 -68 57 -170 0
-49 -69 58 -170 0
-50 -70 48 -170 0
-50 -72 49 -170 0
-50 -73 51 -170 0
-50 -74 52 -170 0
-50 -75 53 -170 0
-50 -76 54 -170 0
-50 -77 55 -170 0
-50 -78 56 -170 0
-50 -79 57 -170 0
-50 -80 58 -170 0
-51 -81 48 -170 0
-51 -83 49 -170 0
-51 -84 50 -170 0
-51 -85 52 -170 0
-51 -86 53 -170 0
-51 -87 54 -170 0
-51 -88 55 -170 0
-51 -89 56 -170 0
-51 -90 57 -170 0
-51 -91 58 -170 0
-52 -92 48 -170 0
-52 -94 49 -170 0
-52 -95 50 -170 0
-52 -96 51 -170 0
-52 -97 53 -170 0
-52 -98 54 -170 0
-52 -99 55 -170 0
-52 -100 56 -170 0
-52 -101 57 -170 0
-52 -102 58 -170 0
-53 -103 48 -170 0
-53 -105 49 -170 0
-53 -106 50 -170 0
-53 -107 51 -170 0
-53 -108 52 -170 0
-53 -109 54 -170 0
-53 -110 55 -170 0
-53 -111 56 -170 0
-53 -112 57 -170 0
-53 -113 58 -170 0
-54 -114 48 -170 0
-54 -116 49 -170 0
-54 -117 50 -170 0
-54 -118 51 -170 0
-54 -119 52 -170 0
-54 -120 53 -170 0
-54 -121 55 -170 0
-54 -122 56 -170 0
-54 -123 57 -170 0
-54 -124 58 -170 0
-55 -125 48 -170 0
-55 -127 49 -170 0
-55 -128 50 -170 0
-55 -129 51 -170 0
-55 -130 52 -170 0
-55 -131 53 -170 0
-55 -132 54 -170 0
-55 -133 56 -170 0
-55 -134 57 -170 0
-55 -135 58 -170 0
-56 -136 48 -170 0
-56 -138 49 -170 0
-56 -139 50 -170 0
-56 -140 51 -170 0
-56 -141 52 -170 0
-56 -142 53 -170 0
-56 -143 54 -170 0
-56 -144 55 -170 0
-56 -145 57 -170 0
-56 -146 58 -170 0
-57 -147 48 -170 0
-57 -149 49 -170 0
-57 -150 50 -170 0
-57 -151 51 -170 0
-57 -152 52 -170 0
-57 -153 53 -170 0
-57 -154 54 -170 0
-57 -155 55 -170 0
-57 -156 56 -170 0
-57 -157 58 -170 0
-58 -158 48 -170 0
-58 -160 49 -170 0
-58 -161 50 -170 0
-58 -162 51 -170 0
-58 -163 52 -170 0
-58 -164 53 -170 0
-58 -165 54 -170 0
-58 -166 55 -170 0
-58 -167 56 -170 0
-58 -168 57 -170 0
-59 -37 60 -170 0
-59 -39 61 -170 0
-59 -40 62 -170 0
-59 -41 63 -170 0
-59 -42 64 -170 0
-59 -43 65 -170 0
-59 -44 66 -170 0
-59 -45 67 -170 0
-59 -46 68 -170 0
-59 -47 69 -170 0
-60 -48 59 -170 0
-60 -50 61 -170 0
-60 -51 62 -170 0
-60 -52 63 -170 0
-60 -53 64 -170 0
-60 -54 65 -170 0
-60 -55 66 -170 0
-60 -56 67 -170 0
-60 -57 68 -170 0
-60 -58 69 -170 0
-61 -70 59 -170 0
-61 -71 60 -170 0
-61 -73 62 -170 0
-61 -74 63 -170 0
-61 -75 64 -170 0
-61 -76 65 -170 0
-61 -77 66 -170 0
-61 -78 67 -170 0
-61 -79 68 -170 0
-61 -80 69 -170 0
-62 -81 59 -170 0
-62 -82 60 -170 0
-62 -84 61 -170 0
-62 -85 63 -170 0
-62 -86 64 -170 0
-62 -87 65 -170 0
-62 -88 66 -170 0
-62 -89 67 -170 0
-62 -90 68 -170 0
-62 -91 69 -170 0
-63 -92 59 -170 0
-63 -93 60 -170 0
-63 -95 61 -170 0
-63 -96 62 -170 0
-63 -97 64 -170 0
-63 -98 65 -170 0
-63 -99 66 -170 0
-63 -100 67 -170 0
-63 -101 68 -170 0
-63 -102 69 -170 0
-64 -103 59 -170 0
-64 -104 60 -170 0
-64 -106 61 -170 0
-64 -107 62 -170 0
-64 -108 63 -170 0
-64 -109 65 -170 0
-64 -110 66 -170 0
-64 -111 67 -170 0
-64 -112 68 -170 0
-64 -113 69 -170 0
-65 -114 59 -170 0
-65 -115 60 -170 0
-65 -117 61 -170 0
-65 -118 62 -170 0
-65 -119 63 -170 0
-65 -120 64 -170 0
-65 -121 66 -170 0
-65 -122 67 -170 0
-65 -123 68 -170 0
-65 -124 69 -170 0
-66 -125 59 -170 0
-66 -126 60 -170 0
-66 -128 61 -170 0
-66 -129 62 -170 0
-66 -130 63 -170 0
-66 -131 64 -170 0
-66 -132 65 -170 0
-66 -133 67 -170 0
-66 -134 68 -170 0
-66 -135 69 -170 0
-67 -136 59 -170 0
-67 -137 60 -170 0
-67 -139 61 -170 0
-67 -140 62 -170 0
-67 -141 63 -170 0
-67 -142 64 -170 0
-67 -143 65 -170 0
-67 -144 66 -170 0
-67 -145 68 -170 0
-67 -146 69 -170 0
-68 -147 59 -170 0
-68 -148 60 -170 0
-68 -150 61 -170 0
-68 -151 62 -170 0
-68 -152 63 -170 0
-68 -153 64 -170 0
-68 -154 65 -170 0
-68 -155 66 -170 0
-68 -156 67 -170 0
-68 -157 69 -170 0
-69 -158 59 -170 0
-69 -159 60 -170 0
-69 -161 61 -170 0
-69 -162 62 -170 0
-69 -163 63 -170 0
-69 -164 64 -170 0
-69 -165 65 -170 0
-69 -166 66 -170 0
-69 -167 67 -170 0
-69 -168 68 -170 0
-70 -37 71 -170 0
-70 -38 72 -170 0
-70 -40 73 -170 0
-70 -41 74 -170 0
-70 -42 75 -170 0
-70 -43 76 -170 0
-70 -44 77 -170 0
-70 -45 78 -170 0
-70 -46 79 -170 0
-70 -47 80 -170 0
-71 -48 70 -170 0
-71 -49 72 -170 0
-71 -51 73 -170 0
-71 -52 74 -170 0
-71 -53 75 -170 0
-71 -54 76 -170 0
-71 -55 77 -170 0
-71 -56 78 -170 0
-71 -57 79 -170 0
-71 -58 80 -170 0
-72 -59 70 -170 0
-72 -60 71 -170 0
-72 -62 73 -170 0
-72 -63 74 -170 0
-72 -64 75 -170 0
-72 -65 76 -170 0
-72 -66 77 -170 0
-72 -67 78 -170 0
-72 -68 79 -170 0
-72 -69 80 -170 0
-73 -81 70 -170 0
-73 -82 71 -170 0
-73 -83 72 -170 0
-73 -85 74 -170 0
-73 -86 75 -170 0
-73 -87 76 -170 0
-73 -88 77 -170 0
-73 -89 78 -170 0
-73 -90 79 -170 0
-73 -91 80 -170 0
-74 -92 70 -170 0
-74 -93 71 -170 0
-74 -94 72 -170 0
-74 -96 73 -170 0
-74 -97 75 -170 0
-74 -98 76 -170 0
-74 -99 77 -170 0
-74 -100 78 -170 0
-74 -101 79 -170 0
-74 -102 80 -170 0
-75 -103 70 -170 0
-75 -104 71 -170 0
-75 -105 72 -170 0
-75 -107 73 -170 0
-75 -108 74 -170 0
-75 -109 76 -170 0
-75 -110 77 -170 0
-75 -111 78 -170 0
-75 -112 79 -170 0
-75 -113 80 -170 0
-76 -114 70 -170 0
-76 -115 71 -170 0
-76 -116 72 -170 0
-76 -118 73 -170 0
-76 -119 74 -170 0
-76 -120 75 -170 0
-76 -121 77 -170 0
-76 -122 78 -170 0
-76 -123 79 -170 0
-76 -124 80 -170 0
-77 -125 70 -170 0
-77 -126 71 -170 0
-77 -127 72 -170 0
-77 -129 73 -170 0
-77 -130 74 -170 0
-77 -131 75 -170 0
-77 -132 76 -170 0
-77 -133 78 -170 0
-77 -134 79 -170 0
-77 -135 80 -170 0
-78 -136 70 -170 0
-78 -137 71 -170 0
-78 -138 72 -170 0
-78 -140 73 -170 0
-78 -141 74 -170 0
-78 -142 75 -170 0
-78 -143 76 -170 0
-78 -144 77 -170 0
-78 -145 79 -170 0
-78 -146 80 -170 0
-79 -147 70 -170 0
-79 -148 71 -170 0
-79 -149 72 -170 0
-79 -151 73 -170 0
-79 -152 74 -170 0
-79 -153 75 -170 0
-79 -154 76 -170 0
-79 -155 77 -170 0
-79 -156 78 -170 0
-79 -157 80 -170 0
-80 -158 70 -170 0
-80 -159 71 -170 0
-80 -160 72 -170 0
-80 -162 73 -170 0
-80 -163 74 -170 0
-80 -164 75 -170 0
-80 -165 76 -170 0
-80 -166 77 -170 0
-80 -167 78 -170 0
-80 -168 79 -170 0
-81 -37 82 -170 0
-81 -38 83 -170 0
-81 -39 84 -170 0
-81 -41 85 -170 0
-81 -42 86 -170 0
-81 -43 87 -170 0
-81 -44 88 -170 0
-81 -45 89 -170 0
-81 -46 90 -170 0
-81 -47 91 -170 0
-82 -48 81 -170 0
-82 -49 83 -170 0
-82 -50 84 -170 0
-82 -52 85 -170 0
-82 -53 86 -170 0
-82 -54 87 -170 0
-82 -55 88 -170 0
-82 -56 89 -170 0
-82 -57 90 -170 0
-82 -58 91 -170 0
-83 -59 81 -170 0
-83 -60 82 -170 0
-83 -61 84 -170 0
-83 -63 85 -170 0
-83 -64 86 -170 0
-83 -65 87 -170 0
-83 -66 88 -170 0
-83 -67 89 -170 0
-83 -68 90 -170 0
-83 -69 91 -170 0
-84 -70 81 -170 0
-84 -71 82 -170 0
-84 -72 83 -170 0
-84 -74 85 -170 0
-84 -75 86 -170 0
-84 -76 87 -170 0
-84 -77 88 -170 0
-84 -78 89 -170 0
-84 -79 90 -170 0
-84 -80 91 -170 0
-85 -92 81 -170 0
-85 -93 82 -170 0
-85 -94 83 -170 0
-85 -95 84 -170 0
-85 -97 86 -170 0
-85 -98 87 -170 0
-85 -99 88 -170 0
-85 -100 89 -170 0
-85 -101 90 -170 0
-85 -102 91 -170 0
-86 -103 81 -170 0
-86 -104 82 -170 0
-86 -105 83 -170 0
-86 -106 84 -170 0
-86 -108 85 -170 0
-86 -109 87 -170 0
-86 -110 88 -170 0
-86 -111 89 -170 0
-86 -112 90 -170 0
-86 -113 91 -170 0
-87 -114 81 -170 0
-87 -115 82 -170 0
-87 -116 83 -170 0
-87 -117 84 -170 0
-87 -119 85 -170 0
-87 -120 86 -170 0
-87 -121 88 -170 0
-87 -122 89 -170 0
-87 -123 90 -170 0
-87 -124 91 -170 0
-88 -125 81 -170 0
-88 -126 82 -170 0
-88 -127 83 -170 0
-88 -128 84 -170 0
-88 -130 85 -170 0
-88 -131 86 -170 0
-88 -132 87 -170 0
-88 -133 89 -170 0
-88 -134 90 -170 0
-88 -135 91 -170 0
-89 -136 81 -170 0
-89 -137 82 -170 0
-89 -138 83 -170 0
-89 -139 84 -170 0
-89 -141 85 -170 0
-89 -142 86 -170 0
-89 -143 87 -170 0
-89 -144 88 -170 0
-89 -145 90 -170 0
-89 -146 91 -170 0
-90 -147 81 -170 0
-90 -148 82 -170 0
-90 -149 83 -170 0
-90 -150 84 -170 0
-90 -152 85 -170 0
-90 -153 86 -170 0
-90 -154 87 -170 0
-90 -155 88 -170 0
-90 -156 89 -170 0
-90 -157 91 -170 0
-91 -158 81 -170 0
-91 -159 82 -170 0
-91 -160 83 -170 0
-91 -161 84 -170 0
-91 -163 85 -170 0
-91 -164 86 -170 0
-91 -165 87 -170 0
-91 -166 88 -170 0
-91 -167 89 -170 0
-91 -168 90 -170 0
-92 -37 93 -170 0
-92 -38 94 -170 0
-92 -39 95 -170 0
-92 -40 96 -170 0
-92 -42 97 -170 0
-92 -43 98 -170 0
-92 -44 99 -170 0
-92 -45 100 -170 0
-92 -46 101 -170 0
-92 -47 102 -170 0
-93 -48 92 -170 0
-93 -49 94 -170 0
-93 -50 95 -170 0
-93 -51 96 -170 0
-93 -53 97 -170 0
-93 -54 98 -170 0
-93 -55 99 -170 0
-93 -56 100 -170 0
-93 -57 101 -170 0
-93 -58 102 -170 0
-94 -59 92 -170 0
-94 -60 93 -170 0
-94 -61 95 -170 0
-94 -62 96 -170 0
-94 -64 97 -170 0
-94 -65 98 -170 0
-94 -66 99 -170 0
-94 -67 100 -170 0
-94 -68 101 -170 0
-94 -69 102 -170 0
-95 -70 92 -170 0
-95 -71 93 -170 0
-95 -72 94 -170 0
-95 -73 96 -170 0
-95 -75 97 -170 0
-95 -76 98 -170 0
-95 -77 99 -170 0
-95 -78 100 -170 0
-95 -79 101 -170 0
-95 -80 102 -170 0
-96 -81 92 -170 0
-96 -82 93 -170 0
-96 -83 94 -170 0
-96 -84 95 -170 0
-96 -86 97 -170 0
-96 -87 98 -170 0
-96 -88 99 -170 0
-96 -89 100 -170 0
-96 -90 101 -170 0
-96 -91 102 -170 0
-97 -103 92 -170 0
-97 -104 93 -170 0
-97 -105 94 -170 0
-97 -106 95 -170 0
-97 -107 96 -170 0
-97 -109 98 -170 0
-97 -110 99 -170 0
-97 -111 100 -170 0
-97 -112 101 -170 0
-97 -113 102 -170 0
-98 -114 92 -170 0
-98 -115 93 -170 0
-98 -116 94 -170 0
-98 -117 95 -170 0
-98 -118 96 -170 0
-98 -120 97 -170 0
-98 -121 99 -170 0
-98 -122 100 -170 0
-98 -123 101 -170 0
-98 -124 102 -170 0
-99 -125 92 -170 0
-99 -126 93 -170 0
-99 -127 94 -170 0
-99 -128 95 -170 0
-99 -129 96 -170 0
-99 -131 97 -170 0
-99 -132 98 -170 0
-99 -133 100 -170 0
-99 -134 101 -170 0
-99 -135 102 -170 0
-100 -136 92 -170 0
-100 -137 93 -170 0
-100 -138 94 -170 0
-100 -139 95 -170 0
-100 -140 96 -170 0
-100 -142 97 -170 0
-100 -143 98 -170 0
-100 -144 99 -170 0
-100 -145 101 -170 0
-100 -146 102 -170 0
-101 -147 92 -170 0
-101 -148 93 -170 0
-101 -149 94 -170 0
-101 -150 95 -170 0
-101 -151 96 -170 0
-101 -153 97 -170 0
-101 -154 98 -170 0
-101 -155 99 -170 0
-101 -156 100 -170 0
-101 -157 102 -170 0
-102 -158 92 -170 0
-102 -159 93 -170 0
-102 -160 94 -170 0
-102 -161 95 -170 0
-102 -162 96 -170 0
-102 -164 97 -170 0
-102 -165 98 -170 0
-102 -166 99 -170 0
-102 -167 100 -170 0
-102 -168 101 -170 0
-103 -37 104 -170 0
-103 -38 105 -170 0
-103 -39 106 -170 0
-103 -40 107 -170 0
-103 -41 108 -170 0
-103 -43 109 -170 0
-103 -44 110 -170 0
-103 -45 111 -170 0
-103 -46 112 -170 0
-103 -47 113 -170 0
-104 -48 103 -170 0
-104 -49 105 -170 0
-104 -50 106 -170 0
-104 -51 107 -170 0
-104 -52 108 -170 0
-104 -54 109 -170 0
-104 -55 110 -170 0
-104 -56 111 -170 0
-104 -57 112 -170 0
-104 -58 113 -170 0
-105 -59 103 -170 0
-105 -60 104 -170 0
-105 -61 106 -170 0
-105 -62 107 -170 0
-105 -63 108 -170 0
-105 -65 109 -170 0
-105 -66 110 -170 0
-105 -67 111 -170 0
-105 -68 112 -170 0
-105 -69 113 -170 0
-106 -70 103 -170 0
-106 -71 104 -170 0
-106 -72 105 -170 0
-106 -73 107 -170 0
-106 -74 108 -170 0
-106 -76 109 -170 0
-106 -77 110 -170 0
-106 -78 111 -170 0
-106 -79 112 -170 0
-106 -80 113 -170 0
-107 -81 103 -170 0
-107 -82 104 -170 0
-107 -83 105 -170 0
-107 -84 106 -170 0
-107 -85 108 -170 0
-107 -87 109 -170 0
-107 -88 110 -170 0
-107 -89 111 -170 0
-107 -90 112 -170 0
-107 -91 113 -170 0
-108 -92 103 -170 0
-108 -93 104 -170 0
-108 -94 105 -170 0
-108 -95 106 -170 0
-108 -96 107 -170 0
-108 -98 109 -170 0
-108 -99 110 -170 0
-108 -100 111 -170 0
-108 -101 112 -170 0
-108 -102 113 -170 0
-109 -114 103 -170 0
-109 -115 104 -170 0
-109 -116 105 -170 0
-109 -117 106 -170 0
-109 -118 107 -170 0
-109 -119 108 -170 0
-109 -121 110 -170 0
-109 -122 111 -170 0
-109 -123 112 -170 0
-109 -124 113 -170 0
-110 -125 103 -170 0
-110 -126 104 -170 0
-110 -127 105 -170 0
-110 -128 106 -170 0
-110 -129 107 -170 0
-110 -130 108 -170 0
-110 -132 109 -170 0
-110 -133 111 -170 0
-110 -134 112 -170 0
-110 -135 113 -170 0
-111 -136 103 -170 0
-111 -137 104 -170 0
-111 -138 105 -170 0
-111 -139 106 -170 0
-111 -140 107 -170 0
-111 -141 108 -170 0
-111 -143 109 -170 0
-111 -144 110 -170 0
-111 -145 112 -170 0
-111 -146 113 -170 0
-112 -147 103 -170 0
-112 -148 104 -170 0
-112 -149 105 -170 0
-112 -150 106 -170 0
-112 -151 107 -170 0
-112 -152 108 -170 0
-112 -154 109 -170 0
-112 -155 110 -170 0
-112 -156 111 -170 0
-112 -157 113 -170 0
-113 -158 103 -170 0
-113 -159 104 -170 0
-113 -160 105 -170 0
-113 -161 106 -170 0
-113 -162 107 -170 0
-113 -163 108 -170 0
-113 -165 109 -170 0
-113 -166 110 -170 0
-113 -167 111 -170 0
-113 -168 112 -170 0
-114 -37 115 -170 0
-114 -38 116 -170 0
-114 -39 117 -170 0
-114 -40 118 -170 0
-114 -41 119 -170 0
-114 -42 120 -170 0
-114 -44 121 -170 0
-114 -45 122 -170 0
-114 -46 123 -170 0
-114 -47 124 -170 0
-115 -48 114 -170 0
-115 -49 116 -170 0
-115 -50 117 -170 0
-115 -51 118 -170 0
-115 -52 119 -170 0
-115 -53 120 -170 0
-115 -55 121 -170 0
-115 -56 122 -170 0
-115 -57 123 -170 0
-115 -58 124 -170 0
-116 -59 114 -170 0
-116 -60 115 -170 0
-116 -61 117 -170 0
-116 -62 118 -170 0
-116 -63 119 -170 0
-116 -64 120 -170 0
-116 -66 121 -170 0
-116 -67 122 -170 0
-116 -68 123 -170 0
-116 -69 124 -170 0
-117 -70 114 -170 0
-117 -71 115 -170 0
-117 -72 116 -170 0
-117 -73 118 -170 0
-117 -74 119 -170 0
-117 -75 120 -170 0
-117 -77 121 -170 0
-117 -78 122 -170 0
-117 -79 123 -170 0
-117 -80 124 -170 0
-118 -81 114 -170 0
-118 -82 115 -170 0
-118 -83 116 -170 0
-118 -84 117 -170 0
-118 -85 119 -170 0
-118 -86 120 -170 0
-118 -88 121 -170 0
-118 -89 122 -170 0
-118 -90 123 -170 0
-118 -91 124 -170 0
-119 -92 114 -170 0
-119 -93 115 -170 0
-119 -94 116 -170 0
-119 -95 117 -170 0
-119 -96 118 -170 0
-119 -97 120 -170 0
-119 -99 121 -170 0
-119 -100 122 -170 0
-119 -101 123 -170 0
-119 -102 124 -170 0
-120 -103 114 -170 0
-120 -104 115 -170 0
-120 -105 116 -170 0
-120 -106 117 -170 0
-120 -107 118 -170 0
-120 -108 119 -170 0
-120 -110 121 -170 0
-120 -111 122 -170 0
-120 -112 123 -170 0
-120 -113 124 -170 0
-121 -125 114 -170 0
-121 -126 115 -170 0
-121 -127 116 -170 0
-121 -128 117 -170 0
-121 -129 118 -170 0
-121 -130 119 -170 0
-121 -131 120 -170 0
-121 -133 122 -170 0
-121 -134 123 -170 0
-121 -135 124 -170 0
-122 -136 114 -170 0
-122 -137 115 -170 0
-122 -138 116 -170 0
-122 -139 117 -170 0
-122 -140 118 -170 0
-122 -141 119 -170 0
-122 -142 120 -170 0
-122 -144 121 -170 0
-122 -145 123 -170 0
-122 -146 124 -170 0
-123 -147 114 -170 0
-123 -148 115 -170 0
-123 -149 116 -170 0
-123 -150 117 -170 0
-123 -151 118 -170 0
-123 -152 119 -170 0
-123 -153 120 -170 0
-123 -155 121 -170 0
-123 -156 122 -170 0
-123 -157 124 -170 0
-124 -158 114 -170 0
-124 -159 115 -170 0
-124 -160 116 -170 0
-124 -161 117 -170 0
-124 -162 118 -170 0
-124 -163 119 -170 0
-124 -164 120 -170 0
-124 -166 121 -170 0
-124 -167 122 -170 0
-124 -168 123 -170 0
-125 -37 126 -170 0
-125 -38 127 -170 0
-125 -39 128 -170 0
-125 -40 129 -170 0
-125 -41 130 -170 0
-125 -42 131 -170 0
-125 -43 132 -170 0
-125 -45 133 -170 0
-125 -46 134 -170 0
-125 -47 135 -170 0
-126 -48 125 -170 0
-126 -49 127 -170 0
-126 -50 128 -170 0
-126 -51 129 -170 0
-126 -52 130 -170 0
-126 -53 131 -170 0
-126 -54 132 -170 0
-126 -56 133 -170 0
-126 -57 134 -170 0
-126 -58 135 -170 0
-127 -59 125 -170 0
-127 -60 126 -170 0
-127 -61 128 -170 0
-127 -62 129 -170 0
-127 -63 130 -170 0
-127 -64 131 -170 0
-127 -65 132 -170 0
-127 -67 133 -170 0
-127 -68 134 -170 0
-127 -69 135 -170 0
-128 -70 125 -170 0
-128 -71 126 -170 0
-128 -72 127 -170 0
-128 -73 129 -170 0
-128 -74 130 -170 0
-128 -75 131 -170 0
-128 -76 132 -170 0
-128 -78 133 -170 0
-128 -79 134 -170 0
-128 -80 135 -170 0
-129 -81 125 -170 0
-129 -82 126 -170 0
-129 -83 127 -170 0
-129 -84 128 -170 0
-129 -85 130 -170 0
-129 -86 131 -170 0
-129 -87 132 -170 0
-129 -89 133 -170 0
-129 -90 134 -170 0
-129 -91 135 -170 0
-130 -92 125 -170 0
-130 -93 126 -170 0
-130 -94 127 -170 0
-130 -95 128 -170 0
-130 -96 129 -170 0
-130 -97 131 -170 0
-130 -98 132 -170 0
-130 -100 133 -170 0
-130 -101 134 -170 0
-130 -102 135 -170 0
-131 -103 125 -170 0
-131 -104 126 -170 0
-131 -105 127 -170 0
-131 -106 128 -170 0
-131 -107 129 -170 0
-131 -108 130 -170 0
-131 -109 132 -170 0
-131 -111 133 -170 0
-131 -112 134 -170 0
-131 -113 135 -170 0
-132 -114 125 -170 0
-132 -115 126 -170 0
-132 -116 127 -170 0
-132 -117 128 -170 0
-132 -118 129 -170 0
-132 -119 130 -170 0
-132 -120 131 -170 0
-132 -122 133 -170 0
-132 -123 134 -170 0
-132 -124 135 -170 0
-133 -136 125 -170 0
-133 -137 126 -170 0
-133 -138 127 -170 0
-133 -139 128 -170 0
-133 -140 129 -170 0
-133 -141 130 -170 0
-133 -142 131 -170 0
-133 -143 132 -170 0
-133 -145 134 -170 0
-133 -146 135 -170 0
-134 -147 125 -170 0
-134 -148 126 -170 0
-134 -149 127 -170 0
-134 -150 128 -170 0
-134 -151 129 -170 0
-134 -152 130 -170 0
-134 -153 131 -170 0
-134 -154 132 -170 0
-134 -156 133 -170 0
-134 -157 135 -170 0
-135 -158 125 -170 0
-135 -159 126 -170 0
-135 -160 127 -170 0
-135 -161 128 -170 0
-135 -162 129 -170 0
-135 -163 130 -170 0
-135 -164 131 -170 0
-135 -165 132 -170 0
-135 -167 133 -170 0
-135 -168 134 -170 0
-136 -37 137 -170 0
-136 -38 138 -170 0
-136 -39 139 -170 0
-136 -40 140 -170 0
-136 -41 141 -170 0
-136 -42 142 -170 0
-136 -43 143 -170 0
-136 -44 144 -170 0
-136 -46 145 -170 0
-136 -47 146 -170 0
-137 -48 136 -170 0
-137 -49 138 -170 0
-137 -50 139 -170 0
-137 -51 140 -170 0
-137 -52 141 -170 0
-137 -53 142 -170 0
-137 -54 143 -170 0
-137 -55 144 -170 0
-137 -57 145 -170 0
-137 -58 146 -170 0
-138 -59 136 -170 0
-138 -60 137 -170 0
-138 -61 139 -170 0
-138 -62 140 -170 0
-138 -63 141 -170 0
-138 -64 142 -170 0
-138 -65 143 -170 0
-138 -66 144 -170 0
-138 -68 145 -170 0
-138 -69 146 -170 0
-139 -70 136 -170 0
-139 -71 137 -170 0
-139 -72 138 -170 0
-139 -73 140 -170 0
-139 -74 141 -170 0
-139 -75 142 -170 0
-139 -76 143 -170 0
-139 -77 144 -170 0
-139 -79 145 -170 0
-139 -80 146 -170 0
-140 -81 136 -170 0
-140 -82 137 -170 0
-140 -83 138 -170 0
-140 -84 139 -170 0
-140 -85 141 -170 0
-140 -86 142 -170 0
-140 -87 143 -170 0
-140 -88 144 -170 0
-140 -90 145 -170 0
-140 -91 146 -170 0
-141 -92 136 -170 0
-141 -93 137 -170 0
-141 -94 138 -170 0
-141 -95 139 -170 0
-141 -96 140 -170 0
-141 -97 142 -170 0
-141 -98 143 -170 0
-141 -99 144 -170 0
-141 -101 145 -170 0
-141 -102 146 -170 0
-142 -103 136 -170 0
-142 -104 137 -170 0
-142 -105 138 -170 0
-142 -106 139 -170 0
-142 -107 140 -170 0
-142 -108 141 -170 0
-142 -109 143 -170 0
-142 -110 144 -170 0
-142 -112 145 -170 0
-142 -113 146 -170 0
-143 -114 136 -170 0
-143 -115 137 -170 0
-143 -116 138 -170 0
-143 -117 139 -170 0
-143 -118 140 -170 0
-143 -119 141 -170 0
-143 -120 142 -170 0
-143 -121 144 -170 0
-143 -123 145 -170 0
-143 -124 146 -170 0
-144 -125 136 -170 0
-144 -126 137 -170 0
-144 -127 138 -170 0
-144 -128 139 -170 0
-144 -129 140 -170 0
-144 -130 141 -170 0
-144 -131 142 -170 0
-144 -132 143 -170 0
-144 -134 145 -170 0
-144 -135 146 -170 0
-145 -147 136 -170 0
-145 -148 137 -170 0
-145 -149 138 -170 0
-145 -150 139 -170 0
-145 -151 140 -170 0
-145 -152 141 -170 0
-145 -153 142 -170 0
-145 -154 143 -170 0
-145 -155 144 -170 0
-145 -157 146 -170 0
-146 -158 136 -170 0
-146 -159 137 -170 0
-146 -160 138 -170 0
-146 -161 139 -170 0
-146 -162 140 -170 0
-146 -163 141 -170 0
-146 -164 142 -170 0
-146 -165 143 -170 0
-146 -166 144 -170 0
-146 -168 145 -170 0
-147 -37 148 -170 0
-147 -38 149 -170 0
-147 -39 150 -170 0
-147 -40 151 -170 0
-147 -41 152 -170 0
-147 -42 153 -170 0
-147 -43 154 -170 0
-147 -44 155 -170 0
-147 -45 156 -170 0
-147 -47 157 -170 0
-148 -48 147 -170 0
-148 -49 149 -170 0
-148 -50 150 -170 0
-148 -51 151 -170 0
-148 -52 152 -170 0
-148 -53 153 -170 0
-148 -54 154 -170 0
-148 -55 155 -170 0
-148 -56 156 -170 0
-148 -58 157 -170 0
-149 -59 147 -170 0
-149 -60 148 -170 0
-149 -61 150 -170 0
-149 -62 151 -170 0
-149 -63 152 -170 0
-149 -64 153 -170 0
-149 -65 154 -170 0
-149 -66 155 -170 0
-149 -67 156 -170 0
-149 -69 157 -170 0
-150 -70 147 -170 0
-150 -71 148 -170 0
-150 -72 149 -170 0
-150 -73 151 -170 0
-150 -74 152 -170 0
-150 -75 153 -170 0
-150 -76 154 -170 0
-150 -77 155 -170 0
-150 -78 156 -170 0
-150 -80 157 -170 0
-151 -81 147 -170 0
-151 -82 148 -170 0
-151 -83 149 -170 0
-151 -84 150 -170 0
-151 -85 152 -170 0
-151 -86 153 -170 0
-151 -87 154 -170 0
-151 -88 155 -170 0
-151 -89 156 -170 0
-151 -91 157 -170 0
-152 -92 147 -170 0
-152 -93 148 -170 0
-152 -94 149 -170 0
-152 -95 150 -170 0
-152 -96 151 -170 0
-152 -97 153 -170 0
-152 -98 154 -170 0
-152 -99 155 -170 0
-152 -100 156 -170 0
-152 -102 157 -170 0
-153 -103 147 -170 0
-153 -104 148 -170 0
-153 -105 149 -170 0
-153 -106 150 -170 0
-153 -107 151 -170 0
-153 -108 152 -170 0
-153 -109 154 -170 0
-153 -110 155 -170 0
-153 -111 156 -170 0
-153 -113 157 -170 0
-154 -114 147 -170 0
-154 -115 148 -170 0
-154 -116 149 -170 0
-154 -117 150 -170 0
-154 -118 151 -170 0
-154 -119 152 -170 0
-154 -120 153 -170 0
-154 -121 155 -170 0
-154 -122 156 -170 0
-154 -124 157 -170 0
-155 -125 147 -170 0
-155 -126 148 -170 0
-155 -127 149 -170 0
-155 -128 150 -170 0
-155 -129 151 -170 0
-155 -130 152 -170 0
-155 -131 153 -170 0
-155 -132 154 -170 0
-155 -133 156 -170 0
-155 -135 157 -170 0
-156 -136 147 -170 0
-156 -137 148 -170 0
-156 -138 149 -170 0
-156 -139 150 -170 0
-156 -140 151 -170 0
-156 -141 152 -170 0
-156 -142 153 -170 0
-156 -143 154 -170 0
-156 -144 155 -170 0
-156 -146 157 -170 0
-157 -158 147 -170 0
-157 -159 148 -170 0
-157 -160 149 -170 0
-157 -161 150 -170 0
-157 -162 151 -170 0
-157 -163 152 -170 0
-157 -164 153 -170 0
-157 -165 154 -170 0
-157 -166 155 -170 0
-157 -167 156 -170 0
-158 -37 159 -170 0
-158 -38 160 -170 0
-158 -39 161 -170 0
-158 -40 162 -170 0
-158 -41 163 -170 0
-158 -42 164 -170 0
-158 -43 165 -170 0
-158 -44 166 -170 0
-158 -45 167 -170 0
-158 -46 168 -170 0
-159 -48 158 -170 0
-159 -49 160 -170 0
-159 -50 161 -170 0
-159 -51 162 -170 0
-159 -52 163 -170 0
-159 -53 164 -170 0
-159 -54 165 -170 0
-159 -55 166 -170 0
-159 -56 167 -170 0
-159 -57 168 -170 0
-160 -59 158 -170 0
-160 -60 159 -170 0
-160 -61 161 -170 0
-160 -62 162 -170 0
-160 -63 163 -170 0
-160 -64 164 -170 0
-160 -65 165 -170 0
-160 -66 166 -170 0
-160 -67 167 -170 0
-160 -68 168 -170 0
-161 -70 158 -170 0
-161 -71 159 -170 0
-161 -72 160 -170 0
-161 -73 162 -170 0
-161 -74 163 -170 0
-161 -75 164 -170 0
-161 -76 165 -170 0
-161 -77 166 -170 0
-161 -78 167 -170 0
-161 -79 168 -170 0
-162 -81 158 -170 0
-162 -82 159 -170 0
-162 -83 160 -170 0
-162 -84 161 -170 0
-162 -85 163 -170 0
-162 -86 164 -170 0
-162 -87 165 -170 0
-162 -88 166 -170 0
-162 -89 167 -170 0
-162 -90 168 -170 0
-163 -92 158 -170 0
-163 -93 159 -170 0
-163 -94 160 -170 0
-163 -95 161 -170 0
-163 -96 162 -170 0
-163 -97 164 -170 0
-163 -98 165 -170 0
-163 -99 166 -170 0
-163 -100 167 -170 0
-163 -101 168 -170 0
-164 -103 158 -170 0
-164 -104 159 -170 0
-164 -105 160 -170 0
-164 -106 161 -170 0
-164 -107 162 -170 0
-164 -108 163 -170 0
-164 -109 165 -170 0
-164 -110 166 -170 0
-164 -111 167 -170 0
-164 -112 168 -170 0
-165 -114 158 -170 0
-165 -115 159 -170 0
-165 -116 160 -170 0
-165 -117 161 -170 0
-165 -118 162 -170 0
-165 -119 163 -170 0
-165 -120 164 -170 0
-165 -121 166 -170 0
-165 -122 167 -170 0
-165 -123 168 -170 0
-166 -125 158 -170 0
-166 -126 159 -170 0
-166 -127 160 -170 0
-166 -128 161 -170 0
-166 -129 162 -170 0
-166 -130 163 -170 0
-166 -131 164 -170 0
-166 -132 165 -170 0
-166 -133 167 -170 0
-166 -134 168 -170 0
-167 -136 158 -170 0
-167 -137 159 -170 0
-167 -138 160 -170 0
-167 -139 161 -170 0
-167 -140 162 -170 0
-167 -141 163 -170 0
-167 -142 164 -170 0
-167 -143 165 -170 0
-167 -144 166 -170 0
-167 -145 168 -170 0
-168 -147 158 -170 0
-168 -148 159 -170 0
-168 -149 160 -170 0
-168 -150 161 -170 0
-168 -151 162 -170 0
-168 -152 163 -170 0
-168 -153 164 -170 0
-168 -154 165 -170 0
-168 -155 166 -170 0
-168 -156 167 -170 0
48 59 70 81 92 103 114 125 136 147 158 -170 0
37 60 71 82 93 104 115 126 137 148 159 -170 0
38 49 72 83 94 105 116 127 138 149 160 -170 0
39 50 61 84 95 106 117 128 139 150 161 -170 0
40 51 62 73 96 107 118 129 140 151 162 -170 0
41 52 63 74 85 108 119 130 141 152 163 -170 0
42 53 64 75 86 97 120 131 142 153 164 -170 0
43 54 65 76 87 98 109 132 143 154 165 -170 0
44 55 66 77 88 99 110 121 144 155 166 -170 0
45 56 67 78 89 100 111 122 133 156 167 -170 0
46 57 68 79 90 101 112 123 134 145 168 -170 0
47 58 69 80 91 102 113 124 135 146 157 -170 0
169 170 0
